NAME : mEgtspf.pid14192.gtsp.187904960.tour
COMMENT : Length = 187904960
COMMENT : Found by LKH [Keld Helsgaun] Wed Apr  2 21:39:55 2025
TYPE : TOUR
DIMENSION : 95
TOUR_SECTION
1
10
82
83
80
81
35
32
33
34
51
48
49
50
41
42
43
40
8
95
92
93
94
76
77
78
79
37
38
39
36
3
15
30
31
28
29
58
59
56
57
12
2
14
4
23
20
21
22
84
85
86
87
7
25
26
27
24
13
72
73
74
75
47
44
45
46
55
52
53
54
91
88
89
90
11
67
64
65
66
71
68
69
70
19
16
17
18
5
61
62
63
60
6
9
-1
EOF
